p cnf 68 62
-1 28 55 0 
-2 54 55 0 
-3 47 52 55 0 
-4 55 0 
-5 -6 56 -55 0 
-5 -7 57 -55 0 
-8 55 0 
-9 35 45 -10 53 55 0 
-11 14 37 55 0 
-10 53 -12 48 -6 55 0 
-13 16 36 55 0 
-14 11 37 55 0 
-15 55 0 
-16 13 36 55 0 
-1 28 -2 54 55 0 
-17 55 0 
-18 55 0 
-19 43 55 0 
-20 55 0 
-21 55 0 
-22 -6 55 0 
-23 55 0 
-24 58 -55 0 
-25 59 0 
-13 16 36 55 0 
-12 48 55 0 
-26 50 55 0 
-27 55 0 
-28 1 55 0 
-29 55 0 
-30 34 55 0 
-31 55 0 
-32 51 55 0 
-33 55 0 
-34 30 55 0 
-35 9 45 55 0 
-36 13 16 55 0 
-37 11 14 55 0 
-38 58 -55 0 
-39 60 -55 0 
-40 61 -55 0 
-40 62 -55 0 
-41 -42 63 -55 0 
-43 19 55 0 
-10 53 -44 -45 9 35 -46 55 0 
-39 64 -55 0 
-40 55 0 
-40 56 -55 0 
-39 65 -55 -9 -35 -45 0 
-40 66 -55 0 
-39 -22 -47 3 52 64 -55 0 
-39 62 -55 0 
-40 65 -55 -9 -35 -45 0 
-39 -48 12 -47 3 52 57 -55 0 
-49 55 0 
-32 51 -50 26 55 0 
-51 32 67 -39 -55 0 
-52 3 47 68 -55 0 
-53 10 -54 2 55 0 
-34 30 57 -55 0 
-29 57 -55 0 
-32 51 57 -55 0 
